 $CONTRL SCFTYP=NOT_A_METHOD RUNTYP=ENERGY COORD=UNIQUE UNITS=ANGS
         ICHARG=0 MULT=1 $END
 $SYSTEM TIMLIM=1 MWORDS=20 $END
 $BASIS  GBASIS=STO NGAUSS=3 $END

 $DATA
Invalid SCFTYP should fail before doing useful work
C1
H  1.0   0.000000   0.000000   0.000000
 $END
