 $CONTRL SCFTYP=RHF RUNTYP=OPTIMIZE COORD=UNIQUE UNITS=ANGS
         ICHARG=0 MULT=1 $END
 $SYSTEM TIMLIM=1 MWORDS=20 $END
 $BASIS  GBASIS=STO NGAUSS=3 $END
 $SCF    DIRSCF=.TRUE. $END
 $STATPT NSTEP=50 OPTTOL=1.0E-5 $END

 $DATA
Water molecule RHF/STO-3G geometry optimization
C1
O  8.0   0.000000   0.000000   0.000000
H  1.0   0.758602   0.000000   0.504284
H  1.0  -0.758602   0.000000   0.504284
 $END
